NAME : KROB149A.30687.tour
COMMENT : Cost = 0_30687
COMMENT : Found by LKH [Keld Helsgaun] Sun Sep 17 16:52:43 2017
TYPE : TOUR
DIMENSION : 149
TOUR_SECTION
1
84
15
13
20
66
31
103
148
6
54
133
74
22
111
107
97
108
58
147
87
28
100
56
118
5
43
85
94
93
75
130
138
21
121
88
41
59
117
72
3
68
139
4
115
60
142
14
57
36
73
99
33
135
96
143
80
45
10
91
140
98
19
104
92
49
18
29
61
26
81
7
77
9
145
134
126
51
63
127
83
11
52
149
86
95
48
102
65
44
16
119
37
141
24
136
116
32
131
124
46
12
40
27
106
129
64
146
79
114
76
30
67
35
2
23
101
69
110
120
128
122
90
50
132
70
38
39
125
123
71
62
82
137
112
113
144
34
89
25
17
105
8
47
42
55
109
78
53
-1
EOF
